
  32    4
  10   10   10   10

   0   0   0   0   0   8 2 3 7 9 16 17 18 23 
   4  10  10  10  10   2 8 4 
   6  10  10  10  10   4 31 13 11 6 
   2  10  10  10  10   3 13 10 5 
   8  10  10  10  10   5 30 22 21 14 12 
   5  10  10  10  10   4 30 28 15 10 
   3  10  10  10  10   3 31 11 10 
   6  10  10  10  10   3 30 21 12 
   1  10  10  10  10   1 10 
   5  10  10  10  10   3 29 21 14 
   1  10  10  10  10   3 29 21 14 
   2  10  10  10  10   3 28 20 15 
   5  10  10  10  10   3 24 22 19 
   4  10  10  10  10   4 27 26 24 20 
   4  10  10  10  10   4 27 26 25 24 
   4  10  10  10  10   3 31 25 21 
   4  10  10  10  10   2 31 25 
  10  10  10  10  10   2 28 24 
   5  10  10  10  10   1 20 
   4  10  10  10  10   1 25 
   5  10  10  10  10   1 24 
   6  10  10  10  10   1 26 
   5  10  10  10  10   1 24 
   9  10  10  10  10   1 32
  10  10  10  10  10   1 32
   4  10  10  10  10   1 32
   9  10  10  10  10   1 32
   8  10  10  10  10   1 32
   5  10  10  10  10   1 32
   3  10  10  10  10   1 32
   7  10  10  10  10   1 32
   0   0   0   0   0   0 
